(declare-fun temp78_1 () (_ BitVec 64))
(declare-fun var1184330 () (_ BitVec 64))
(assert (= temp78_1 #x0000000000000005))
(assert (= var1184330 temp78_1))
(model-add temp78_1 () (_ BitVec 64) #x0000000000000005)
(model-add var1184330 () (_ BitVec 64) #x0000000000000005)






